c User generated cnf file
p cnf 10 41
5 -6 9 0 
10 -2 4 0 
4 -5 1 0 
7 1 -5 0 
7 2 -10 0 
6 8 -3 0 
5 8 -2 0 
1 -10 10 0 
2 -10 8 0 
9 -5 10 0 
6 9 -10 0 
2 -6 10 0 
4 1 -3 0 
2 6 -8 0 
5 8 -9 0 
4 -9 9 0 
4 -10 8 0 
1 2 -8 0 
10 8 -10 0 
3 8 -4 0 
9 -4 7 0 
10 9 -9 0 
7 -8 10 0 
10 -4 5 0 
9 -8 3 0 
7 10 -2 0 
5 9 -4 0 
9 -6 7 0 
2 2 -9 0 
5 -4 1 0 
8 -9 1 0 
7 -10 9 0 
8 -8 4 0 
10 -10 1 0 
6 8 -1 0 
8 -5 2 0 
5 5 -6 0 
6 1 -7 0 
8 1 -6 0 
3 5 -3 0 
3 2 -10 0 
